letting n_nurses=25
letting n_days=7
letting n_shift_types=4
letting max_covers=5
letting t_covers=61
letting covers=[5,4,2,0,2,2,5,0,5,1,3,0,2,5,2,0,5,3,2,0,1,1,0,0,5,4,2,0]
letting prefes=[1,3,1,1,2,1,1,2,2,4,1,2,2,1,1,2,3,3,3,4,1,1,1,3,1,1,1,3,3,3,1,1,3,1,1,1,2,4,1,2,3,1,1,1,1,1,1,1,2,1,1,1,2,1,1,1,1,1,1,4,3,3,3,2,2,4,4,2,3,3,3,2,3,3,1,4,2,1,1,1,2,1,1,1,1,1,1,4,2,1,1,2,2,4,1,2,2,1,1,2,3,1,1,4,1,1,1,3,1,1,1,3,1,3,1,4,3,1,1,2,2,4,1,2,3,1,1,2,3,3,3,4,2,3,3,3,2,3,3,3,1,1,1,4,3,1,1,2,2,4,1,2,3,1,1,2,3,3,1,4,1,1,3,3,1,1,3,3,1,3,1,4,3,1,3,2,2,4,1,2,3,1,3,2,3,3,1,4,2,1,1,1,2,1,1,1,1,3,3,4,3,3,3,2,2,4,1,2,3,3,3,2,3,3,3,4,2,1,3,3,2,1,3,3,1,3,1,1,3,1,1,2,2,4,4,2,3,1,1,2,3,3,1,4,1,3,3,3,1,3,3,3,1,3,1,4,3,1,1,1,1,2,1,1,3,1,1,1,3,3,1,4,2,1,1,1,2,1,1,1,1,3,1,4,3,1,3,2,2,4,1,2,3,1,3,2,3,3,1,4,2,1,1,3,2,1,1,3,1,3,1,4,3,1,1,1,2,4,1,2,3,1,1,1,3,1,3,4,2,3,3,3,2,3,3,3,1,3,1,4,3,1,1,2,2,2,1,2,3,1,1,2,1,1,1,4,2,1,1,3,2,1,1,3,3,3,3,4,3,1,1,2,2,4,1,2,3,1,1,2,3,3,1,4,2,1,1,3,2,1,1,3,1,1,1,4,3,1,1,2,2,4,4,2,3,1,1,2,3,3,1,4,2,1,1,3,2,1,1,3,3,3,1,4,3,1,1,2,2,4,4,2,3,1,1,2,3,3,3,4,1,1,1,3,1,1,1,3,1,1,1,4,3,1,1,1,2,4,1,2,3,1,1,1,3,3,1,1,2,1,1,3,2,1,1,3,1,3,1,4,3,1,1,2,2,2,1,2,3,1,1,2,3,3,1,4,2,1,1,3,2,1,1,3,3,3,1,1,2,1,1,2,1,2,1,1,2,1,1,2,3,3,1,1,2,3,1,3,2,3,1,3,1,3,3,4,3,3,1,2,2,4,1,2,3,3,1,2,3,3,1,4,2,3,1,3,2,3,1,3,1,3,3,4,3,3,1,2,1,4,1,1,3,3,1,2,3,3,1,4,2,1,1,3,2,1,1,3,1,3,1,1,2,1,1,2,2,4,1,2,2,1,1,2,1,3,1,4,2,1,1,3,2,1,1,3,1,3,1,4,3,1,3,1,2,4,4,2,3,1,3,1,1,3,1,1,2,1,1,3,2,1,1,3,1,3,1,4,2,1,1,2,1,4,1,1,2,1,1,2,3,3,1,4,2,1,1,3,2,1,1,3,3,3,3,4,3,3,1,2,1,2,1,1,3,3,1,2,1,1,1,1,2,1,1,1,2,1,1,1]
letting ub =  227
